<?xml version = "1.0" encoding="UTF-8" standalone="yes"?>
<CPLEXSolution version="1.2">
 <header
   problemName="IloCplex"
   solutionName="p0"
   solutionIndex="-1"
   objectiveValue="-8915747956"
   solutionTypeValue="3"
   solutionTypeString="primal"
   solutionStatusValue="127"
   solutionStatusString="integer feasible solution"
   solutionMethodString="mip"
   primalFeasible="0"
   dualFeasible="0"
   writeLevel="3"/>
 <quality
   epInt="1.0000000000000001e-05"
   epRHS="9.9999999999999995e-07"
   maxIntInfeas="0"
   maxPrimalInfeas="0"
   maxX="1"
   maxSlack="1"/>
 <variables>
  <variable name="w0_0" index="0" value="1"/>
  <variable name="w0_2" index="2" value="1"/>
  <variable name="w0_8" index="8" value="1"/>
  <variable name="w0_13" index="13" value="1"/>
  <variable name="w0_14" index="14" value="1"/>
  <variable name="w0_15" index="15" value="1"/>
  <variable name="w1_0" index="17" value="1"/>
  <variable name="w1_2" index="19" value="1"/>
  <variable name="w1_8" index="25" value="1"/>
  <variable name="w1_13" index="30" value="1"/>
  <variable name="w1_14" index="31" value="1"/>
  <variable name="w1_15" index="32" value="1"/>
  <variable name="w2_0" index="34" value="1"/>
  <variable name="w2_2" index="36" value="1"/>
  <variable name="w2_8" index="42" value="1"/>
  <variable name="w2_13" index="47" value="1"/>
  <variable name="w2_14" index="48" value="1"/>
  <variable name="w2_15" index="49" value="1"/>
  <variable name="w3_0" index="51" value="1"/>
  <variable name="w3_2" index="53" value="1"/>
  <variable name="w3_8" index="59" value="1"/>
  <variable name="w3_13" index="64" value="1"/>
  <variable name="w3_14" index="65" value="1"/>
  <variable name="w3_15" index="66" value="1"/>
  <variable name="w6_0" index="102" value="1"/>
  <variable name="w6_2" index="104" value="1"/>
  <variable name="w6_8" index="110" value="1"/>
  <variable name="w6_13" index="115" value="1"/>
  <variable name="w6_14" index="116" value="1"/>
  <variable name="w6_15" index="117" value="1"/>
  <variable name="w7_0" index="119" value="1"/>
  <variable name="w7_2" index="121" value="1"/>
  <variable name="w7_8" index="127" value="1"/>
  <variable name="w7_13" index="132" value="1"/>
  <variable name="w7_14" index="133" value="1"/>
  <variable name="w7_15" index="134" value="1"/>
  <variable name="w8_0" index="136" value="1"/>
  <variable name="w8_2" index="138" value="1"/>
  <variable name="w8_8" index="144" value="1"/>
  <variable name="w8_13" index="149" value="1"/>
  <variable name="w8_14" index="150" value="1"/>
  <variable name="w8_15" index="151" value="1"/>
  <variable name="w16_0" index="272" value="1"/>
  <variable name="w16_2" index="274" value="1"/>
  <variable name="w16_8" index="280" value="1"/>
  <variable name="w16_13" index="285" value="1"/>
  <variable name="w16_14" index="286" value="1"/>
  <variable name="w16_15" index="287" value="1"/>
  <variable name="w17_0" index="289" value="1"/>
  <variable name="w17_2" index="291" value="1"/>
  <variable name="w17_8" index="297" value="1"/>
  <variable name="w17_13" index="302" value="1"/>
  <variable name="w17_14" index="303" value="1"/>
  <variable name="w17_15" index="304" value="1"/>
  <variable name="w18_0" index="306" value="1"/>
  <variable name="w18_2" index="308" value="1"/>
  <variable name="w18_8" index="314" value="1"/>
  <variable name="w18_13" index="319" value="1"/>
  <variable name="w18_14" index="320" value="1"/>
  <variable name="w18_15" index="321" value="1"/>
  <variable name="k0" index="340" value="1"/>
  <variable name="k1" index="341" value="1"/>
  <variable name="k2" index="342" value="1"/>
  <variable name="k3" index="343" value="1"/>
  <variable name="k6" index="346" value="1"/>
  <variable name="k7" index="347" value="1"/>
  <variable name="k8" index="348" value="1"/>
  <variable name="k16" index="356" value="1"/>
  <variable name="k17" index="357" value="1"/>
  <variable name="k18" index="358" value="1"/>
  <variable name="x0_62" index="422" value="1"/>
  <variable name="x1_51" index="511" value="1"/>
  <variable name="x2_46" index="606" value="1"/>
  <variable name="x3_68" index="728" value="1"/>
  <variable name="x4_27" index="787" value="1"/>
  <variable name="x5_40" index="900" value="1"/>
  <variable name="x6_34" index="994" value="1"/>
  <variable name="x7_71" index="1131" value="1"/>
  <variable name="x8_67" index="1227" value="1"/>
  <variable name="x9_85" index="1345" value="1"/>
  <variable name="x10_99" index="1459" value="1"/>
  <variable name="x11_35" index="1495" value="1"/>
  <variable name="x12_92" index="1652" value="1"/>
  <variable name="x13_70" index="1730" value="1"/>
  <variable name="x14_87" index="1847" value="1"/>
  <variable name="x15_29" index="1889" value="1"/>
  <variable name="x16_2" index="1962" value="1"/>
  <variable name="x17_26" index="2086" value="1"/>
  <variable name="x18_0" index="2160" value="1"/>
  <variable name="x19_94" index="2354" value="1"/>
  <variable name="x20_30" index="2390" value="1"/>
  <variable name="x21_58" index="2518" value="1"/>
  <variable name="x22_61" index="2621" value="1"/>
  <variable name="x23_76" index="2736" value="1"/>
  <variable name="x24_84" index="2844" value="1"/>
  <variable name="x25_54" index="2914" value="1"/>
  <variable name="x26_14" index="2974" value="1"/>
  <variable name="x27_91" index="3151" value="1"/>
  <variable name="x28_81" index="3241" value="1"/>
  <variable name="x29_31" index="3291" value="1"/>
  <variable name="x30_95" index="3455" value="1"/>
  <variable name="x31_83" index="3543" value="1"/>
  <variable name="x32_32" index="3592" value="1"/>
  <variable name="x33_65" index="3725" value="1"/>
  <variable name="x34_6" index="3766" value="1"/>
  <variable name="x35_59" index="3919" value="1"/>
  <variable name="x36_60" index="4020" value="1"/>
  <variable name="x37_57" index="4117" value="1"/>
  <variable name="x38_52" index="4212" value="1"/>
  <variable name="x39_97" index="4357" value="1"/>
  <variable name="x40_90" index="4450" value="1"/>
  <variable name="x41_21" index="4481" value="1"/>
  <variable name="x42_5" index="4565" value="1"/>
  <variable name="x43_93" index="4753" value="1"/>
  <variable name="x44_36" index="4796" value="1"/>
  <variable name="x45_78" index="4938" value="1"/>
  <variable name="x46_8" index="4968" value="1"/>
  <variable name="x47_80" index="5140" value="1"/>
  <variable name="x48_75" index="5235" value="1"/>
  <variable name="x49_16" index="5276" value="1"/>
  <variable name="x50_9" index="5369" value="1"/>
  <variable name="x51_79" index="5539" value="1"/>
  <variable name="x52_7" index="5567" value="1"/>
  <variable name="x53_50" index="5710" value="1"/>
  <variable name="x54_37" index="5797" value="1"/>
  <variable name="x55_45" index="5905" value="1"/>
  <variable name="x56_1" index="5961" value="1"/>
  <variable name="x57_22" index="6082" value="1"/>
  <variable name="x58_23" index="6183" value="1"/>
  <variable name="x59_96" index="6356" value="1"/>
  <variable name="x60_42" index="6402" value="1"/>
  <variable name="x61_25" index="6485" value="1"/>
  <variable name="x62_41" index="6601" value="1"/>
  <variable name="x63_24" index="6684" value="1"/>
  <variable name="x64_44" index="6804" value="1"/>
  <variable name="x65_28" index="6888" value="1"/>
  <variable name="x66_55" index="7015" value="1"/>
  <variable name="x67_20" index="7080" value="1"/>
  <variable name="x68_74" index="7234" value="1"/>
  <variable name="x69_19" index="7279" value="1"/>
  <variable name="x70_77" index="7437" value="1"/>
  <variable name="x71_13" index="7473" value="1"/>
  <variable name="x72_56" index="7616" value="1"/>
  <variable name="x73_17" index="7677" value="1"/>
  <variable name="x74_48" index="7808" value="1"/>
  <variable name="x75_10" index="7870" value="1"/>
  <variable name="x76_49" index="8009" value="1"/>
  <variable name="x77_72" index="8132" value="1"/>
  <variable name="x78_43" index="8203" value="1"/>
  <variable name="x79_47" index="8307" value="1"/>
  <variable name="x80_69" index="8429" value="1"/>
  <variable name="x81_88" index="8548" value="1"/>
  <variable name="x82_15" index="8575" value="1"/>
  <variable name="x83_63" index="8723" value="1"/>
  <variable name="x84_18" index="8778" value="1"/>
  <variable name="x85_82" index="8942" value="1"/>
  <variable name="x86_86" index="9046" value="1"/>
  <variable name="x87_53" index="9113" value="1"/>
  <variable name="x88_39" index="9199" value="1"/>
  <variable name="x89_89" index="9349" value="1"/>
  <variable name="x90_12" index="9372" value="1"/>
  <variable name="x91_33" index="9493" value="1"/>
  <variable name="x92_4" index="9564" value="1"/>
  <variable name="x93_73" index="9733" value="1"/>
  <variable name="x94_64" index="9824" value="1"/>
  <variable name="x95_38" index="9898" value="1"/>
  <variable name="x96_66" index="10026" value="1"/>
  <variable name="x97_11" index="10071" value="1"/>
  <variable name="x98_98" index="10258" value="1"/>
  <variable name="x99_3" index="10263" value="1"/>
  <variable name="u0" index="10360" value="1"/>
  <variable name="u2" index="10362" value="1"/>
  <variable name="u8" index="10368" value="1"/>
  <variable name="u13" index="10373" value="1"/>
  <variable name="u14" index="10374" value="1"/>
  <variable name="u15" index="10375" value="1"/>
 </variables>
</CPLEXSolution>
